# Objective value = 95605
x66 0
x67 1
x68 0
x69 0
x70 1
x71 0
x72 0
x73 1
x74 0
x75 1
x76 1
x77 0
x78 1
x79 0
x80 0
x81 0
x82 1
x83 0
x84 1
x85 1
x86 0
x87 0
x88 1
x89 0
x90 1
x91 1
x92 0
x93 1
x94 0
x95 1
x96 0
x97 1
x98 1
x99 0
x100 1
x101 1
x102 0
x103 1
x104 0
x105 1
x106 1
x107 0
x108 1
x109 1
x110 1
x111 0
x112 1
x113 0
x114 1
x115 1
x116 0
x117 1
x118 1
x119 1
x120 1
x121 0
x122 1
x123 0
x124 1
x125 1
x126 0
x127 1
x128 1
x129 1
x130 1
x131 1
x132 1
x133 0
x134 1
x135 0
x136 0
x137 1
x138 0
x139 0
x140 0
x141 0
x142 0
x143 0
x144 0
x145 1
x146 0
x147 1
x148 1
x149 0
x150 1
x151 1
x152 1
x153 1
x154 1
x155 1
x156 0
x157 0
x158 1
x159 0
x160 1
x161 1
x162 0
x163 1
x164 1
x165 1
x166 1
x167 1
x168 1
x169 0
x170 1
x171 1
x172 0
x173 1
x174 0
x175 0
x176 1
x177 0
x178 0
x179 0
x180 0
x181 0
x182 0
x183 1
x184 0
x185 0
x186 0
x187 1
x188 0
x189 1
x190 1
x191 0
x192 1
x193 1
x194 1
x195 1
x196 1
x197 1
x198 0
x199 1
x200 1
x201 0
x202 0
x203 1
x204 0
x205 1
x206 1
x207 1
x208 1
x209 0
x210 1
x211 0
x212 1
x213 1
x214 1
x215 1
x216 1
x217 1
x218 0
x219 1
x220 0
x221 0
x222 0
x223 1
x224 0
x225 0
x226 0
x227 1
x228 0
x229 1
x230 1
x231 0
x232 1
x233 1
x234 1
x235 0
x236 0
x237 0
x238 1
x239 1
x240 1
x241 1
x242 1
x243 1
x244 1
x245 0
x246 1
x247 0
x248 0
x249 1
x250 1
x251 1
x252 1
x253 1
x254 1
x255 1
x256 0
x257 1
x258 1
x259 0
x260 0
x261 1
x262 1
x263 1
x264 1
x265 0
x266 1
x267 1
x268 0
x269 1
x270 1
x271 1
x272 1
x273 1
x274 0
x275 0
x276 0
x277 1
x278 0
x279 0
x280 0
x281 1
x282 0
x283 0
x284 0
x285 0
x286 1
x287 0
x288 1
x289 0
x290 0
x291 0
x292 1
x293 0
x294 0
x295 1
x296 0
x297 0
x298 0
x299 0
x300 1
x301 0
x302 0
x303 1
x304 1
x305 1
x306 1
x307 0
x308 1
x309 1
x310 0
x311 1
x312 1
x313 1
x314 1
x315 0
x316 0
x317 0
x318 1
x319 1
x320 1
x321 1
x322 1
x323 0
x324 1
x325 1
x326 0
x327 1
x328 1
x329 1
x330 1
x331 0
x332 0
x333 1
x334 0
x335 1
x336 1
x337 1
x338 1
x339 1
x340 0
x341 1
x342 1
x343 0
x344 1
x345 1
x346 1
x347 1
x348 0
x349 0
x350 1
x351 1
x352 0
x353 1
x354 0
x355 1
x356 1
x357 0
x358 1
x359 1
x360 1
x361 0
x362 1
x363 1
x364 1
x365 1
x366 0
x367 0
x368 1
x369 1
x370 1
x371 1
x372 1
x373 0
x374 0
x375 0
x376 1
x377 0
x378 0
x379 0
x380 1
x381 0
x382 0
x383 0
x384 0
x385 1
x386 1
x387 0
x388 0
x389 0
x390 0
x391 0
x392 1
x393 1
x394 1
x395 1
x396 0
x397 1
x398 1
x399 1
x400 0
x401 1
x402 1
x403 1
x404 1
x405 0
x406 0
x407 1
x408 1
x409 1
x410 1
x411 0
x412 0
x413 1
x414 1
x415 1
x416 1
x417 0
x418 1
x419 1
x420 1
x421 0
x422 1
x423 1
x424 1
x425 1
x426 0
x427 0
x428 1
x429 1
x430 1
x431 1
x432 0
x433 1
x434 0
x435 1
x436 0
x437 1
x438 1
x439 0
x440 1
x441 1
x442 0
x443 1
x444 1
x445 0
x446 1
x447 0
x448 1
x449 1
x450 1
x451 1
x452 1
x453 0
x454 1
x455 1
x456 1
x457 0
x458 1
x459 0
x460 1
x461 1
x462 1
x463 1
x464 1
x465 0
x466 1
x467 1
x468 1
x469 1
x470 1
x471 0
x472 1
x473 0
x474 0
x475 0
x476 0
x477 0
x478 1
x479 0
x480 1
x481 0
x482 0
x483 0
x484 0
x485 1
x486 0
x487 1
x488 1
x489 1
x490 1
x491 1
x492 1
x493 1
x494 0
x495 1
x496 1
x497 1
x498 0
x499 0
x500 0
x501 0
x502 1
x503 1
x504 1
x505 1
x506 1
x507 1
x508 1
x509 0
x510 1
x511 1
x512 1
x513 0
x514 1
x515 1
x516 0
x517 1
x518 0
x519 0
x520 0
x521 1
x522 0
x523 0
x524 0
x525 1
x526 0
x527 0
x528 0
x529 1
x530 0
x531 0
x532 0
x533 1
x534 0
x535 1
x536 1
x537 1
x538 1
x539 1
x540 1
x541 1
x542 0
x543 1
x544 1
x545 1
x546 0
x547 1
x548 1
x549 0
x550 0
x551 1
x552 1
x553 1
x554 0
x555 1
x556 0
x557 1
x558 1
x559 1
x560 1
x561 1
x562 1
x563 1
x564 0
x565 1
x566 1
x567 0
x568 1
x569 1
x570 0
x571 0
x572 0
x573 1
x574 0
x575 1
x576 0
x577 0
x578 0
x579 1
x580 0
x581 0
x582 0
x583 1
x584 0
x585 0
x586 1
x587 0
x588 0
x589 0
x590 1
x591 1
x592 1
x593 0
x594 0
x595 0
x596 1
x597 1
x598 1
x599 1
x600 1
x601 1
x602 1
x603 0
x604 1
x605 1
x606 0
x607 1
x608 1
x609 0
x610 0
x611 1
x612 1
x613 1
x614 0
x615 1
x616 0
x617 1
x618 1
x619 1
x620 1
x621 1
x622 1
x623 1
x624 0
x625 1
x626 1
x627 0
x628 1
x629 1
x630 0
x631 1
x632 1
x633 0
x634 0
x635 0
x636 1
x637 0
x638 1
x639 0
x640 1
x641 0
x642 0
x643 0
x644 0
x645 0
x646 1
x647 0
x648 0
x649 1
x650 0
x651 0
x652 1
x653 0
x654 0
x655 0
x656 1
x657 1
x658 1
x659 0
x660 1
x661 1
x662 1
x663 0
x664 1
x665 1
x666 1
x667 1
x668 1
x669 0
x670 1
x671 1
x672 0
x673 1
x674 1
x675 0
x676 1
x677 1
x678 0
x679 0
x680 1
x681 1
x682 1
x683 0
x684 1
x685 1
x686 1
x687 0
x688 1
x689 1
x690 1
x691 1
x692 1
x693 0
x694 1
x695 1
x696 0
x697 1
x698 1
x699 0
x700 1
x701 1
x702 0
x703 1
x704 0
x705 0
x706 1
x707 1
x708 0
x709 1
x710 1
x711 1
x712 0
x713 1
x714 1
x715 1
x716 1
x717 1
x718 0
x719 1
x720 1
x721 0
x722 1
x723 1
x724 0
x725 1
x726 1
x727 0
x728 1
x729 1
x730 1
x731 0
x732 1
x733 0
x734 0
x735 1
x736 0
x737 0
x738 1
x739 0
x740 0
x741 0
x742 0
x743 0
x744 1
x745 0
x746 1
x747 0
x748 1
x749 0
x750 1
x751 1
x752 1
x753 1
x754 1
x755 0
x756 1
x757 1
x758 1
x759 1
x760 1
x761 0
x762 0
x763 1
x764 0
x765 0
x766 1
x767 0
x768 1
x769 1
x770 1
x771 1
x772 1
x773 0
x774 1
x775 1
x776 1
x777 1
x778 1
x779 0
x780 1
x781 1
x782 0
x783 1
x784 0
x785 1
x786 0
x787 1
x788 1
x789 1
x790 1
x791 1
x792 0
x793 1
x794 0
x795 1
x796 1
x797 1
x798 0
x799 1
x800 1
x801 0
x802 1
x803 1
x804 0
x805 1
x806 0
x807 1
x808 1
x809 1
x810 1
x811 1
x812 1
x813 1
x814 0
x815 1
x816 1
x817 0
x818 1
x819 1
x820 0
x821 0
x822 1
x823 1
x824 1
x825 1
x826 1
x827 1
x828 0
x829 0
x830 0
x831 0
x832 0
x833 0
x834 0
x835 1
x836 0
x837 0
x838 1
x839 0
x840 1
x841 0
x842 1
x843 0
x844 0
x845 0
x846 0
x847 0
x848 1
x849 0
x850 1
x851 1
x852 1
x853 0
x854 1
x855 1
x856 1
x857 0
x858 1
x859 1
x860 0
x861 1
x862 1
x863 1
x864 0
x865 1
x866 1
x867 1
x868 1
x869 0
x870 0
x871 1
x872 0
x873 1
x874 1
x875 1
x876 1
x877 1
x878 1
x879 1
x880 0
x881 1
x882 1
x883 0
x884 1
x885 1
x886 1
x887 0
x888 1
x889 1
x890 1
x891 1
x892 0
x893 1
x894 0
x895 1
x896 1
x897 1
x898 0
x899 1
x900 0
x901 1
x902 1
x903 1
x904 1
x905 1
x906 1
x907 1
x908 0
x909 1
x910 1
x911 0
x912 1
x913 1
x914 1
x915 1
x916 0
x917 1
x918 1
x919 0
x920 1
x921 1
x922 1
x923 0
x924 1
x925 0
x926 1
x927 1
x928 1
x929 0
x930 1
x931 1
x932 1
x933 0
x934 1
x935 1
x936 0
x937 1
x938 1
x939 1
x940 1
x941 0
x942 1
x943 1
x944 1
x945 1
x946 0
x947 0
x948 0
x949 1
x950 1
x951 1
x952 0
x953 0
x954 0
x955 0
x956 0
x957 1
x958 0
x959 1
x960 0
x961 0
x962 1
x963 0
x964 0
x965 0
x966 0
x967 1
x968 0
x969 0
x970 0
x971 0
x972 0
x973 1
x974 1
x975 1
x976 0
x977 1
x978 0
x979 1
x980 1
x981 1
x982 1
x983 0
x984 1
x985 1
x986 0
x987 1
x988 1
x989 0
x990 1
x991 1
x992 1
x993 1
x994 0
x995 1
x996 1
x997 1
x998 1
x999 0
x1000 0
x1001 1
x1002 1
x1003 1
x1004 0
x1005 1
x1006 0
x1007 1
x1008 0
x1009 1
x1010 1
x1011 1
x1012 1
x1013 0
x1014 1
x1015 1
x1016 1
x1017 0
x1018 1
x1019 1
x1020 1
x1021 1
x1022 0
x1023 1
x1024 1
x1025 1
x1026 1
x1027 0
x1028 1
x1029 0
x1030 1
x1031 1
x1032 1
x1033 0
x1034 1
x1035 1
x1036 1
x1037 0
x1038 1
x1039 1
x1040 1
x1041 1
x1042 0
x1043 1
x1044 1
x1045 1
x1046 0
x1047 1
x1048 1
x1049 1
x1050 1
x1051 0
x1052 1
x1053 1
x1054 1
x1055 1
x1056 0
x1057 1
x1058 1
x1059 0
x1060 1
x1061 1
x1062 1
x1063 0
x1064 1
x1065 1
x1066 1
x1067 0
x1068 1
x1069 1
x1070 1
x1071 0
x1072 0
x1073 1
x1074 1
x1075 1
x1076 0
x1077 1
x1078 1
x1079 1
x1080 1
x1081 0
x1082 1
x1083 1
x1084 1
x1085 1
x1086 0
x1087 1
x1088 1
x1089 1
x1090 1
x1091 1
x1092 0
x1093 0
x1094 1
x1095 0
x1096 0
x1097 0
x1098 1
x1099 0
x1100 0
x1101 1
x1102 0
x1103 1
x1104 0
x1105 0
x1106 0
x1107 1
x1108 0
x1109 0
x1110 0
x1111 0
x1112 1
x1113 0
x1114 0
x1115 0
x1116 0
x1117 1
x1118 0
x1119 0
x1120 0
x1121 0
x1 1
x2 0
x3 1
x4 0
x5 0
x6 1
x7 0
x8 0
x9 0
x10 0
x11 0
x12 0
x13 1
x14 0
x15 0
x16 1
x17 0
x18 0
x19 0
x20 1
x21 0
x22 0
x23 0
x24 0
x25 1
x26 1
x27 0
x28 0
x29 0
x30 0
x31 1
x32 0
x33 0
x34 0
x35 0
x36 0
x37 1
x38 0
x39 0
x40 1
x41 0
x42 0
x43 1
x44 0
x45 0
x46 1
x47 0
x48 0
x49 0
x50 1
x51 0
x52 0
x53 0
x54 0
x55 1
x56 0
x57 0
x58 0
x59 0
x60 1
x61 0
x62 0
x63 0
x64 0
x65 1
